# Solution for model r10_t18_m7_9
# Finished Task: 7 / 18
# Makespan: 436.0, Total Distance: 546.0, Total Time: 0.0183
# R O S F
0 0 21 0.0 0.0
1 1 10 0.0 0.0
2 2 18 0.0 0.0
3 3 19 0.0 0.0
4 4 26 0.0 0.0
5 5 -1 0.0 0.0
6 6 -1 0.0 0.0
7 7 -1 0.0 0.0
8 8 -1 0.0 0.0
9 9 -1 0.0 0.0
10 1 17 98.0 132.0
11 -1 -1 -1.0 -1.0
12 -1 -1 -1.0 -1.0
13 -1 -1 -1.0 -1.0
14 -1 -1 -1.0 -1.0
15 -1 -1 -1.0 -1.0
16 -1 -1 -1.0 -1.0
17 1 -1 256.0 280.0
18 2 -1 280.0 305.0
19 3 25 319.0 340.0
20 -1 -1 -1.0 -1.0
21 0 -1 371.0 399.0
22 -1 -1 -1.0 -1.0
23 -1 -1 -1.0 -1.0
24 -1 -1 -1.0 -1.0
25 3 -1 399.0 436.0
26 4 -1 73.0 109.0
27 -1 -1 -1.0 -1.0
